c created by edge2cnf
p cnf 500 3100
-1 -2 0
-1 -3 0
-1 -4 0
-1 -5 0
-2 -3 0
-2 -4 0
-2 -5 0
-3 -4 0
-3 -5 0
-4 -5 0
1 2 3 4 5 0
-6 -7 0
-6 -8 0
-6 -9 0
-6 -10 0
-7 -8 0
-7 -9 0
-7 -10 0
-8 -9 0
-8 -10 0
-9 -10 0
6 7 8 9 10 0
-11 -12 0
-11 -13 0
-11 -14 0
-11 -15 0
-12 -13 0
-12 -14 0
-12 -15 0
-13 -14 0
-13 -15 0
-14 -15 0
11 12 13 14 15 0
-16 -17 0
-16 -18 0
-16 -19 0
-16 -20 0
-17 -18 0
-17 -19 0
-17 -20 0
-18 -19 0
-18 -20 0
-19 -20 0
16 17 18 19 20 0
-21 -22 0
-21 -23 0
-21 -24 0
-21 -25 0
-22 -23 0
-22 -24 0
-22 -25 0
-23 -24 0
-23 -25 0
-24 -25 0
21 22 23 24 25 0
-26 -27 0
-26 -28 0
-26 -29 0
-26 -30 0
-27 -28 0
-27 -29 0
-27 -30 0
-28 -29 0
-28 -30 0
-29 -30 0
26 27 28 29 30 0
-31 -32 0
-31 -33 0
-31 -34 0
-31 -35 0
-32 -33 0
-32 -34 0
-32 -35 0
-33 -34 0
-33 -35 0
-34 -35 0
31 32 33 34 35 0
-36 -37 0
-36 -38 0
-36 -39 0
-36 -40 0
-37 -38 0
-37 -39 0
-37 -40 0
-38 -39 0
-38 -40 0
-39 -40 0
36 37 38 39 40 0
-41 -42 0
-41 -43 0
-41 -44 0
-41 -45 0
-42 -43 0
-42 -44 0
-42 -45 0
-43 -44 0
-43 -45 0
-44 -45 0
41 42 43 44 45 0
-46 -47 0
-46 -48 0
-46 -49 0
-46 -50 0
-47 -48 0
-47 -49 0
-47 -50 0
-48 -49 0
-48 -50 0
-49 -50 0
46 47 48 49 50 0
-51 -52 0
-51 -53 0
-51 -54 0
-51 -55 0
-52 -53 0
-52 -54 0
-52 -55 0
-53 -54 0
-53 -55 0
-54 -55 0
51 52 53 54 55 0
-56 -57 0
-56 -58 0
-56 -59 0
-56 -60 0
-57 -58 0
-57 -59 0
-57 -60 0
-58 -59 0
-58 -60 0
-59 -60 0
56 57 58 59 60 0
-61 -62 0
-61 -63 0
-61 -64 0
-61 -65 0
-62 -63 0
-62 -64 0
-62 -65 0
-63 -64 0
-63 -65 0
-64 -65 0
61 62 63 64 65 0
-66 -67 0
-66 -68 0
-66 -69 0
-66 -70 0
-67 -68 0
-67 -69 0
-67 -70 0
-68 -69 0
-68 -70 0
-69 -70 0
66 67 68 69 70 0
-71 -72 0
-71 -73 0
-71 -74 0
-71 -75 0
-72 -73 0
-72 -74 0
-72 -75 0
-73 -74 0
-73 -75 0
-74 -75 0
71 72 73 74 75 0
-76 -77 0
-76 -78 0
-76 -79 0
-76 -80 0
-77 -78 0
-77 -79 0
-77 -80 0
-78 -79 0
-78 -80 0
-79 -80 0
76 77 78 79 80 0
-81 -82 0
-81 -83 0
-81 -84 0
-81 -85 0
-82 -83 0
-82 -84 0
-82 -85 0
-83 -84 0
-83 -85 0
-84 -85 0
81 82 83 84 85 0
-86 -87 0
-86 -88 0
-86 -89 0
-86 -90 0
-87 -88 0
-87 -89 0
-87 -90 0
-88 -89 0
-88 -90 0
-89 -90 0
86 87 88 89 90 0
-91 -92 0
-91 -93 0
-91 -94 0
-91 -95 0
-92 -93 0
-92 -94 0
-92 -95 0
-93 -94 0
-93 -95 0
-94 -95 0
91 92 93 94 95 0
-96 -97 0
-96 -98 0
-96 -99 0
-96 -100 0
-97 -98 0
-97 -99 0
-97 -100 0
-98 -99 0
-98 -100 0
-99 -100 0
96 97 98 99 100 0
-101 -102 0
-101 -103 0
-101 -104 0
-101 -105 0
-102 -103 0
-102 -104 0
-102 -105 0
-103 -104 0
-103 -105 0
-104 -105 0
101 102 103 104 105 0
-106 -107 0
-106 -108 0
-106 -109 0
-106 -110 0
-107 -108 0
-107 -109 0
-107 -110 0
-108 -109 0
-108 -110 0
-109 -110 0
106 107 108 109 110 0
-111 -112 0
-111 -113 0
-111 -114 0
-111 -115 0
-112 -113 0
-112 -114 0
-112 -115 0
-113 -114 0
-113 -115 0
-114 -115 0
111 112 113 114 115 0
-116 -117 0
-116 -118 0
-116 -119 0
-116 -120 0
-117 -118 0
-117 -119 0
-117 -120 0
-118 -119 0
-118 -120 0
-119 -120 0
116 117 118 119 120 0
-121 -122 0
-121 -123 0
-121 -124 0
-121 -125 0
-122 -123 0
-122 -124 0
-122 -125 0
-123 -124 0
-123 -125 0
-124 -125 0
121 122 123 124 125 0
-126 -127 0
-126 -128 0
-126 -129 0
-126 -130 0
-127 -128 0
-127 -129 0
-127 -130 0
-128 -129 0
-128 -130 0
-129 -130 0
126 127 128 129 130 0
-131 -132 0
-131 -133 0
-131 -134 0
-131 -135 0
-132 -133 0
-132 -134 0
-132 -135 0
-133 -134 0
-133 -135 0
-134 -135 0
131 132 133 134 135 0
-136 -137 0
-136 -138 0
-136 -139 0
-136 -140 0
-137 -138 0
-137 -139 0
-137 -140 0
-138 -139 0
-138 -140 0
-139 -140 0
136 137 138 139 140 0
-141 -142 0
-141 -143 0
-141 -144 0
-141 -145 0
-142 -143 0
-142 -144 0
-142 -145 0
-143 -144 0
-143 -145 0
-144 -145 0
141 142 143 144 145 0
-146 -147 0
-146 -148 0
-146 -149 0
-146 -150 0
-147 -148 0
-147 -149 0
-147 -150 0
-148 -149 0
-148 -150 0
-149 -150 0
146 147 148 149 150 0
-151 -152 0
-151 -153 0
-151 -154 0
-151 -155 0
-152 -153 0
-152 -154 0
-152 -155 0
-153 -154 0
-153 -155 0
-154 -155 0
151 152 153 154 155 0
-156 -157 0
-156 -158 0
-156 -159 0
-156 -160 0
-157 -158 0
-157 -159 0
-157 -160 0
-158 -159 0
-158 -160 0
-159 -160 0
156 157 158 159 160 0
-161 -162 0
-161 -163 0
-161 -164 0
-161 -165 0
-162 -163 0
-162 -164 0
-162 -165 0
-163 -164 0
-163 -165 0
-164 -165 0
161 162 163 164 165 0
-166 -167 0
-166 -168 0
-166 -169 0
-166 -170 0
-167 -168 0
-167 -169 0
-167 -170 0
-168 -169 0
-168 -170 0
-169 -170 0
166 167 168 169 170 0
-171 -172 0
-171 -173 0
-171 -174 0
-171 -175 0
-172 -173 0
-172 -174 0
-172 -175 0
-173 -174 0
-173 -175 0
-174 -175 0
171 172 173 174 175 0
-176 -177 0
-176 -178 0
-176 -179 0
-176 -180 0
-177 -178 0
-177 -179 0
-177 -180 0
-178 -179 0
-178 -180 0
-179 -180 0
176 177 178 179 180 0
-181 -182 0
-181 -183 0
-181 -184 0
-181 -185 0
-182 -183 0
-182 -184 0
-182 -185 0
-183 -184 0
-183 -185 0
-184 -185 0
181 182 183 184 185 0
-186 -187 0
-186 -188 0
-186 -189 0
-186 -190 0
-187 -188 0
-187 -189 0
-187 -190 0
-188 -189 0
-188 -190 0
-189 -190 0
186 187 188 189 190 0
-191 -192 0
-191 -193 0
-191 -194 0
-191 -195 0
-192 -193 0
-192 -194 0
-192 -195 0
-193 -194 0
-193 -195 0
-194 -195 0
191 192 193 194 195 0
-196 -197 0
-196 -198 0
-196 -199 0
-196 -200 0
-197 -198 0
-197 -199 0
-197 -200 0
-198 -199 0
-198 -200 0
-199 -200 0
196 197 198 199 200 0
-201 -202 0
-201 -203 0
-201 -204 0
-201 -205 0
-202 -203 0
-202 -204 0
-202 -205 0
-203 -204 0
-203 -205 0
-204 -205 0
201 202 203 204 205 0
-206 -207 0
-206 -208 0
-206 -209 0
-206 -210 0
-207 -208 0
-207 -209 0
-207 -210 0
-208 -209 0
-208 -210 0
-209 -210 0
206 207 208 209 210 0
-211 -212 0
-211 -213 0
-211 -214 0
-211 -215 0
-212 -213 0
-212 -214 0
-212 -215 0
-213 -214 0
-213 -215 0
-214 -215 0
211 212 213 214 215 0
-216 -217 0
-216 -218 0
-216 -219 0
-216 -220 0
-217 -218 0
-217 -219 0
-217 -220 0
-218 -219 0
-218 -220 0
-219 -220 0
216 217 218 219 220 0
-221 -222 0
-221 -223 0
-221 -224 0
-221 -225 0
-222 -223 0
-222 -224 0
-222 -225 0
-223 -224 0
-223 -225 0
-224 -225 0
221 222 223 224 225 0
-226 -227 0
-226 -228 0
-226 -229 0
-226 -230 0
-227 -228 0
-227 -229 0
-227 -230 0
-228 -229 0
-228 -230 0
-229 -230 0
226 227 228 229 230 0
-231 -232 0
-231 -233 0
-231 -234 0
-231 -235 0
-232 -233 0
-232 -234 0
-232 -235 0
-233 -234 0
-233 -235 0
-234 -235 0
231 232 233 234 235 0
-236 -237 0
-236 -238 0
-236 -239 0
-236 -240 0
-237 -238 0
-237 -239 0
-237 -240 0
-238 -239 0
-238 -240 0
-239 -240 0
236 237 238 239 240 0
-241 -242 0
-241 -243 0
-241 -244 0
-241 -245 0
-242 -243 0
-242 -244 0
-242 -245 0
-243 -244 0
-243 -245 0
-244 -245 0
241 242 243 244 245 0
-246 -247 0
-246 -248 0
-246 -249 0
-246 -250 0
-247 -248 0
-247 -249 0
-247 -250 0
-248 -249 0
-248 -250 0
-249 -250 0
246 247 248 249 250 0
-251 -252 0
-251 -253 0
-251 -254 0
-251 -255 0
-252 -253 0
-252 -254 0
-252 -255 0
-253 -254 0
-253 -255 0
-254 -255 0
251 252 253 254 255 0
-256 -257 0
-256 -258 0
-256 -259 0
-256 -260 0
-257 -258 0
-257 -259 0
-257 -260 0
-258 -259 0
-258 -260 0
-259 -260 0
256 257 258 259 260 0
-261 -262 0
-261 -263 0
-261 -264 0
-261 -265 0
-262 -263 0
-262 -264 0
-262 -265 0
-263 -264 0
-263 -265 0
-264 -265 0
261 262 263 264 265 0
-266 -267 0
-266 -268 0
-266 -269 0
-266 -270 0
-267 -268 0
-267 -269 0
-267 -270 0
-268 -269 0
-268 -270 0
-269 -270 0
266 267 268 269 270 0
-271 -272 0
-271 -273 0
-271 -274 0
-271 -275 0
-272 -273 0
-272 -274 0
-272 -275 0
-273 -274 0
-273 -275 0
-274 -275 0
271 272 273 274 275 0
-276 -277 0
-276 -278 0
-276 -279 0
-276 -280 0
-277 -278 0
-277 -279 0
-277 -280 0
-278 -279 0
-278 -280 0
-279 -280 0
276 277 278 279 280 0
-281 -282 0
-281 -283 0
-281 -284 0
-281 -285 0
-282 -283 0
-282 -284 0
-282 -285 0
-283 -284 0
-283 -285 0
-284 -285 0
281 282 283 284 285 0
-286 -287 0
-286 -288 0
-286 -289 0
-286 -290 0
-287 -288 0
-287 -289 0
-287 -290 0
-288 -289 0
-288 -290 0
-289 -290 0
286 287 288 289 290 0
-291 -292 0
-291 -293 0
-291 -294 0
-291 -295 0
-292 -293 0
-292 -294 0
-292 -295 0
-293 -294 0
-293 -295 0
-294 -295 0
291 292 293 294 295 0
-296 -297 0
-296 -298 0
-296 -299 0
-296 -300 0
-297 -298 0
-297 -299 0
-297 -300 0
-298 -299 0
-298 -300 0
-299 -300 0
296 297 298 299 300 0
-301 -302 0
-301 -303 0
-301 -304 0
-301 -305 0
-302 -303 0
-302 -304 0
-302 -305 0
-303 -304 0
-303 -305 0
-304 -305 0
301 302 303 304 305 0
-306 -307 0
-306 -308 0
-306 -309 0
-306 -310 0
-307 -308 0
-307 -309 0
-307 -310 0
-308 -309 0
-308 -310 0
-309 -310 0
306 307 308 309 310 0
-311 -312 0
-311 -313 0
-311 -314 0
-311 -315 0
-312 -313 0
-312 -314 0
-312 -315 0
-313 -314 0
-313 -315 0
-314 -315 0
311 312 313 314 315 0
-316 -317 0
-316 -318 0
-316 -319 0
-316 -320 0
-317 -318 0
-317 -319 0
-317 -320 0
-318 -319 0
-318 -320 0
-319 -320 0
316 317 318 319 320 0
-321 -322 0
-321 -323 0
-321 -324 0
-321 -325 0
-322 -323 0
-322 -324 0
-322 -325 0
-323 -324 0
-323 -325 0
-324 -325 0
321 322 323 324 325 0
-326 -327 0
-326 -328 0
-326 -329 0
-326 -330 0
-327 -328 0
-327 -329 0
-327 -330 0
-328 -329 0
-328 -330 0
-329 -330 0
326 327 328 329 330 0
-331 -332 0
-331 -333 0
-331 -334 0
-331 -335 0
-332 -333 0
-332 -334 0
-332 -335 0
-333 -334 0
-333 -335 0
-334 -335 0
331 332 333 334 335 0
-336 -337 0
-336 -338 0
-336 -339 0
-336 -340 0
-337 -338 0
-337 -339 0
-337 -340 0
-338 -339 0
-338 -340 0
-339 -340 0
336 337 338 339 340 0
-341 -342 0
-341 -343 0
-341 -344 0
-341 -345 0
-342 -343 0
-342 -344 0
-342 -345 0
-343 -344 0
-343 -345 0
-344 -345 0
341 342 343 344 345 0
-346 -347 0
-346 -348 0
-346 -349 0
-346 -350 0
-347 -348 0
-347 -349 0
-347 -350 0
-348 -349 0
-348 -350 0
-349 -350 0
346 347 348 349 350 0
-351 -352 0
-351 -353 0
-351 -354 0
-351 -355 0
-352 -353 0
-352 -354 0
-352 -355 0
-353 -354 0
-353 -355 0
-354 -355 0
351 352 353 354 355 0
-356 -357 0
-356 -358 0
-356 -359 0
-356 -360 0
-357 -358 0
-357 -359 0
-357 -360 0
-358 -359 0
-358 -360 0
-359 -360 0
356 357 358 359 360 0
-361 -362 0
-361 -363 0
-361 -364 0
-361 -365 0
-362 -363 0
-362 -364 0
-362 -365 0
-363 -364 0
-363 -365 0
-364 -365 0
361 362 363 364 365 0
-366 -367 0
-366 -368 0
-366 -369 0
-366 -370 0
-367 -368 0
-367 -369 0
-367 -370 0
-368 -369 0
-368 -370 0
-369 -370 0
366 367 368 369 370 0
-371 -372 0
-371 -373 0
-371 -374 0
-371 -375 0
-372 -373 0
-372 -374 0
-372 -375 0
-373 -374 0
-373 -375 0
-374 -375 0
371 372 373 374 375 0
-376 -377 0
-376 -378 0
-376 -379 0
-376 -380 0
-377 -378 0
-377 -379 0
-377 -380 0
-378 -379 0
-378 -380 0
-379 -380 0
376 377 378 379 380 0
-381 -382 0
-381 -383 0
-381 -384 0
-381 -385 0
-382 -383 0
-382 -384 0
-382 -385 0
-383 -384 0
-383 -385 0
-384 -385 0
381 382 383 384 385 0
-386 -387 0
-386 -388 0
-386 -389 0
-386 -390 0
-387 -388 0
-387 -389 0
-387 -390 0
-388 -389 0
-388 -390 0
-389 -390 0
386 387 388 389 390 0
-391 -392 0
-391 -393 0
-391 -394 0
-391 -395 0
-392 -393 0
-392 -394 0
-392 -395 0
-393 -394 0
-393 -395 0
-394 -395 0
391 392 393 394 395 0
-396 -397 0
-396 -398 0
-396 -399 0
-396 -400 0
-397 -398 0
-397 -399 0
-397 -400 0
-398 -399 0
-398 -400 0
-399 -400 0
396 397 398 399 400 0
-401 -402 0
-401 -403 0
-401 -404 0
-401 -405 0
-402 -403 0
-402 -404 0
-402 -405 0
-403 -404 0
-403 -405 0
-404 -405 0
401 402 403 404 405 0
-406 -407 0
-406 -408 0
-406 -409 0
-406 -410 0
-407 -408 0
-407 -409 0
-407 -410 0
-408 -409 0
-408 -410 0
-409 -410 0
406 407 408 409 410 0
-411 -412 0
-411 -413 0
-411 -414 0
-411 -415 0
-412 -413 0
-412 -414 0
-412 -415 0
-413 -414 0
-413 -415 0
-414 -415 0
411 412 413 414 415 0
-416 -417 0
-416 -418 0
-416 -419 0
-416 -420 0
-417 -418 0
-417 -419 0
-417 -420 0
-418 -419 0
-418 -420 0
-419 -420 0
416 417 418 419 420 0
-421 -422 0
-421 -423 0
-421 -424 0
-421 -425 0
-422 -423 0
-422 -424 0
-422 -425 0
-423 -424 0
-423 -425 0
-424 -425 0
421 422 423 424 425 0
-426 -427 0
-426 -428 0
-426 -429 0
-426 -430 0
-427 -428 0
-427 -429 0
-427 -430 0
-428 -429 0
-428 -430 0
-429 -430 0
426 427 428 429 430 0
-431 -432 0
-431 -433 0
-431 -434 0
-431 -435 0
-432 -433 0
-432 -434 0
-432 -435 0
-433 -434 0
-433 -435 0
-434 -435 0
431 432 433 434 435 0
-436 -437 0
-436 -438 0
-436 -439 0
-436 -440 0
-437 -438 0
-437 -439 0
-437 -440 0
-438 -439 0
-438 -440 0
-439 -440 0
436 437 438 439 440 0
-441 -442 0
-441 -443 0
-441 -444 0
-441 -445 0
-442 -443 0
-442 -444 0
-442 -445 0
-443 -444 0
-443 -445 0
-444 -445 0
441 442 443 444 445 0
-446 -447 0
-446 -448 0
-446 -449 0
-446 -450 0
-447 -448 0
-447 -449 0
-447 -450 0
-448 -449 0
-448 -450 0
-449 -450 0
446 447 448 449 450 0
-451 -452 0
-451 -453 0
-451 -454 0
-451 -455 0
-452 -453 0
-452 -454 0
-452 -455 0
-453 -454 0
-453 -455 0
-454 -455 0
451 452 453 454 455 0
-456 -457 0
-456 -458 0
-456 -459 0
-456 -460 0
-457 -458 0
-457 -459 0
-457 -460 0
-458 -459 0
-458 -460 0
-459 -460 0
456 457 458 459 460 0
-461 -462 0
-461 -463 0
-461 -464 0
-461 -465 0
-462 -463 0
-462 -464 0
-462 -465 0
-463 -464 0
-463 -465 0
-464 -465 0
461 462 463 464 465 0
-466 -467 0
-466 -468 0
-466 -469 0
-466 -470 0
-467 -468 0
-467 -469 0
-467 -470 0
-468 -469 0
-468 -470 0
-469 -470 0
466 467 468 469 470 0
-471 -472 0
-471 -473 0
-471 -474 0
-471 -475 0
-472 -473 0
-472 -474 0
-472 -475 0
-473 -474 0
-473 -475 0
-474 -475 0
471 472 473 474 475 0
-476 -477 0
-476 -478 0
-476 -479 0
-476 -480 0
-477 -478 0
-477 -479 0
-477 -480 0
-478 -479 0
-478 -480 0
-479 -480 0
476 477 478 479 480 0
-481 -482 0
-481 -483 0
-481 -484 0
-481 -485 0
-482 -483 0
-482 -484 0
-482 -485 0
-483 -484 0
-483 -485 0
-484 -485 0
481 482 483 484 485 0
-486 -487 0
-486 -488 0
-486 -489 0
-486 -490 0
-487 -488 0
-487 -489 0
-487 -490 0
-488 -489 0
-488 -490 0
-489 -490 0
486 487 488 489 490 0
-491 -492 0
-491 -493 0
-491 -494 0
-491 -495 0
-492 -493 0
-492 -494 0
-492 -495 0
-493 -494 0
-493 -495 0
-494 -495 0
491 492 493 494 495 0
-496 -497 0
-496 -498 0
-496 -499 0
-496 -500 0
-497 -498 0
-497 -499 0
-497 -500 0
-498 -499 0
-498 -500 0
-499 -500 0
496 497 498 499 500 0
-6 -26 0
-7 -27 0
-8 -28 0
-9 -29 0
-10 -30 0
-16 -31 0
-17 -32 0
-18 -33 0
-19 -34 0
-20 -35 0
-26 -36 0
-27 -37 0
-28 -38 0
-29 -39 0
-30 -40 0
-36 -56 0
-37 -57 0
-38 -58 0
-39 -59 0
-40 -60 0
-46 -61 0
-47 -62 0
-48 -63 0
-49 -64 0
-50 -65 0
-46 -66 0
-47 -67 0
-48 -68 0
-49 -69 0
-50 -70 0
-56 -61 0
-57 -62 0
-58 -63 0
-59 -64 0
-60 -65 0
-66 -71 0
-67 -72 0
-68 -73 0
-69 -74 0
-70 -75 0
-71 -91 0
-72 -92 0
-73 -93 0
-74 -94 0
-75 -95 0
-81 -96 0
-82 -97 0
-83 -98 0
-84 -99 0
-85 -100 0
-81 -101 0
-82 -102 0
-83 -103 0
-84 -104 0
-85 -105 0
-91 -101 0
-92 -102 0
-93 -103 0
-94 -104 0
-95 -105 0
-116 -131 0
-117 -132 0
-118 -133 0
-119 -134 0
-120 -135 0
-131 -136 0
-132 -137 0
-133 -138 0
-134 -139 0
-135 -140 0
-136 -151 0
-137 -152 0
-138 -153 0
-139 -154 0
-140 -155 0
-151 -171 0
-152 -172 0
-153 -173 0
-154 -174 0
-155 -175 0
-166 -186 0
-167 -187 0
-168 -188 0
-169 -189 0
-170 -190 0
-176 -186 0
-177 -187 0
-178 -188 0
-179 -189 0
-180 -190 0
-196 -206 0
-197 -207 0
-198 -208 0
-199 -209 0
-200 -210 0
-201 -211 0
-202 -212 0
-203 -213 0
-204 -214 0
-205 -215 0
-206 -211 0
-207 -212 0
-208 -213 0
-209 -214 0
-210 -215 0
-211 -221 0
-212 -222 0
-213 -223 0
-214 -224 0
-215 -225 0
-246 -261 0
-247 -262 0
-248 -263 0
-249 -264 0
-250 -265 0
-256 -261 0
-257 -262 0
-258 -263 0
-259 -264 0
-260 -265 0
-301 -321 0
-302 -322 0
-303 -323 0
-304 -324 0
-305 -325 0
-321 -331 0
-322 -332 0
-323 -333 0
-324 -334 0
-325 -335 0
-361 -371 0
-362 -372 0
-363 -373 0
-364 -374 0
-365 -375 0
-381 -386 0
-382 -387 0
-383 -388 0
-384 -389 0
-385 -390 0
-406 -416 0
-407 -417 0
-408 -418 0
-409 -419 0
-410 -420 0
-461 -476 0
-462 -477 0
-463 -478 0
-464 -479 0
-465 -480 0
-466 -471 0
-467 -472 0
-468 -473 0
-469 -474 0
-470 -475 0
-16 -496 0
-17 -497 0
-18 -498 0
-19 -499 0
-20 -500 0
-11 -496 0
-12 -497 0
-13 -498 0
-14 -499 0
-15 -500 0
-6 -496 0
-7 -497 0
-8 -498 0
-9 -499 0
-10 -500 0
-11 -491 0
-12 -492 0
-13 -493 0
-14 -494 0
-15 -495 0
-6 -491 0
-7 -492 0
-8 -493 0
-9 -494 0
-10 -495 0
-1 -491 0
-2 -492 0
-3 -493 0
-4 -494 0
-5 -495 0
-491 -496 0
-492 -497 0
-493 -498 0
-494 -499 0
-495 -500 0
-6 -486 0
-7 -487 0
-8 -488 0
-9 -489 0
-10 -490 0
-1 -486 0
-2 -487 0
-3 -488 0
-4 -489 0
-5 -490 0
-486 -496 0
-487 -497 0
-488 -498 0
-489 -499 0
-490 -500 0
-1 -481 0
-2 -482 0
-3 -483 0
-4 -484 0
-5 -485 0
-481 -491 0
-482 -492 0
-483 -493 0
-484 -494 0
-485 -495 0
-481 -486 0
-482 -487 0
-483 -488 0
-484 -489 0
-485 -490 0
-476 -496 0
-477 -497 0
-478 -498 0
-479 -499 0
-480 -500 0
-476 -491 0
-477 -492 0
-478 -493 0
-479 -494 0
-480 -495 0
-476 -486 0
-477 -487 0
-478 -488 0
-479 -489 0
-480 -490 0
-476 -481 0
-477 -482 0
-478 -483 0
-479 -484 0
-480 -485 0
-471 -491 0
-472 -492 0
-473 -493 0
-474 -494 0
-475 -495 0
-471 -486 0
-472 -487 0
-473 -488 0
-474 -489 0
-475 -490 0
-471 -481 0
-472 -482 0
-473 -483 0
-474 -484 0
-475 -485 0
-471 -476 0
-472 -477 0
-473 -478 0
-474 -479 0
-475 -480 0
-466 -481 0
-467 -482 0
-468 -483 0
-469 -484 0
-470 -485 0
-461 -481 0
-462 -482 0
-463 -483 0
-464 -484 0
-465 -485 0
-461 -471 0
-462 -472 0
-463 -473 0
-464 -474 0
-465 -475 0
-461 -466 0
-462 -467 0
-463 -468 0
-464 -469 0
-465 -470 0
-456 -476 0
-457 -477 0
-458 -478 0
-459 -479 0
-460 -480 0
-456 -471 0
-457 -472 0
-458 -473 0
-459 -474 0
-460 -475 0
-456 -461 0
-457 -462 0
-458 -463 0
-459 -464 0
-460 -465 0
-451 -471 0
-452 -472 0
-453 -473 0
-454 -474 0
-455 -475 0
-451 -466 0
-452 -467 0
-453 -468 0
-454 -469 0
-455 -470 0
-451 -461 0
-452 -462 0
-453 -463 0
-454 -464 0
-455 -465 0
-451 -456 0
-452 -457 0
-453 -458 0
-454 -459 0
-455 -460 0
-446 -461 0
-447 -462 0
-448 -463 0
-449 -464 0
-450 -465 0
-446 -456 0
-447 -457 0
-448 -458 0
-449 -459 0
-450 -460 0
-446 -451 0
-447 -452 0
-448 -453 0
-449 -454 0
-450 -455 0
-441 -456 0
-442 -457 0
-443 -458 0
-444 -459 0
-445 -460 0
-441 -451 0
-442 -452 0
-443 -453 0
-444 -454 0
-445 -455 0
-441 -446 0
-442 -447 0
-443 -448 0
-444 -449 0
-445 -450 0
-436 -456 0
-437 -457 0
-438 -458 0
-439 -459 0
-440 -460 0
-436 -446 0
-437 -447 0
-438 -448 0
-439 -449 0
-440 -450 0
-431 -451 0
-432 -452 0
-433 -453 0
-434 -454 0
-435 -455 0
-431 -446 0
-432 -447 0
-433 -448 0
-434 -449 0
-435 -450 0
-431 -441 0
-432 -442 0
-433 -443 0
-434 -444 0
-435 -445 0
-431 -436 0
-432 -437 0
-433 -438 0
-434 -439 0
-435 -440 0
-426 -446 0
-427 -447 0
-428 -448 0
-429 -449 0
-430 -450 0
-426 -441 0
-427 -442 0
-428 -443 0
-429 -444 0
-430 -445 0
-426 -436 0
-427 -437 0
-428 -438 0
-429 -439 0
-430 -440 0
-421 -441 0
-422 -442 0
-423 -443 0
-424 -444 0
-425 -445 0
-421 -436 0
-422 -437 0
-423 -438 0
-424 -439 0
-425 -440 0
-421 -426 0
-422 -427 0
-423 -428 0
-424 -429 0
-425 -430 0
-416 -436 0
-417 -437 0
-418 -438 0
-419 -439 0
-420 -440 0
-416 -431 0
-417 -432 0
-418 -433 0
-419 -434 0
-420 -435 0
-416 -426 0
-417 -427 0
-418 -428 0
-419 -429 0
-420 -430 0
-416 -421 0
-417 -422 0
-418 -423 0
-419 -424 0
-420 -425 0
-411 -431 0
-412 -432 0
-413 -433 0
-414 -434 0
-415 -435 0
-411 -416 0
-412 -417 0
-413 -418 0
-414 -419 0
-415 -420 0
-406 -426 0
-407 -427 0
-408 -428 0
-409 -429 0
-410 -430 0
-406 -421 0
-407 -422 0
-408 -423 0
-409 -424 0
-410 -425 0
-406 -411 0
-407 -412 0
-408 -413 0
-409 -414 0
-410 -415 0
-401 -421 0
-402 -422 0
-403 -423 0
-404 -424 0
-405 -425 0
-401 -416 0
-402 -417 0
-403 -418 0
-404 -419 0
-405 -420 0
-401 -411 0
-402 -412 0
-403 -413 0
-404 -414 0
-405 -415 0
-401 -406 0
-402 -407 0
-403 -408 0
-404 -409 0
-405 -410 0
-396 -416 0
-397 -417 0
-398 -418 0
-399 -419 0
-400 -420 0
-396 -411 0
-397 -412 0
-398 -413 0
-399 -414 0
-400 -415 0
-396 -401 0
-397 -402 0
-398 -403 0
-399 -404 0
-400 -405 0
-391 -396 0
-392 -397 0
-393 -398 0
-394 -399 0
-395 -400 0
-386 -406 0
-387 -407 0
-388 -408 0
-389 -409 0
-390 -410 0
-386 -401 0
-387 -402 0
-388 -403 0
-389 -404 0
-390 -405 0
-381 -401 0
-382 -402 0
-383 -403 0
-384 -404 0
-385 -405 0
-381 -391 0
-382 -392 0
-383 -393 0
-384 -394 0
-385 -395 0
-376 -396 0
-377 -397 0
-378 -398 0
-379 -399 0
-380 -400 0
-376 -386 0
-377 -387 0
-378 -388 0
-379 -389 0
-380 -390 0
-376 -381 0
-377 -382 0
-378 -383 0
-379 -384 0
-380 -385 0
-371 -391 0
-372 -392 0
-373 -393 0
-374 -394 0
-375 -395 0
-371 -386 0
-372 -387 0
-373 -388 0
-374 -389 0
-375 -390 0
-371 -381 0
-372 -382 0
-373 -383 0
-374 -384 0
-375 -385 0
-371 -376 0
-372 -377 0
-373 -378 0
-374 -379 0
-375 -380 0
-366 -386 0
-367 -387 0
-368 -388 0
-369 -389 0
-370 -390 0
-366 -381 0
-367 -382 0
-368 -383 0
-369 -384 0
-370 -385 0
-366 -376 0
-367 -377 0
-368 -378 0
-369 -379 0
-370 -380 0
-366 -371 0
-367 -372 0
-368 -373 0
-369 -374 0
-370 -375 0
-361 -381 0
-362 -382 0
-363 -383 0
-364 -384 0
-365 -385 0
-361 -376 0
-362 -377 0
-363 -378 0
-364 -379 0
-365 -380 0
-361 -366 0
-362 -367 0
-363 -368 0
-364 -369 0
-365 -370 0
-356 -376 0
-357 -377 0
-358 -378 0
-359 -379 0
-360 -380 0
-356 -366 0
-357 -367 0
-358 -368 0
-359 -369 0
-360 -370 0
-351 -371 0
-352 -372 0
-353 -373 0
-354 -374 0
-355 -375 0
-351 -366 0
-352 -367 0
-353 -368 0
-354 -369 0
-355 -370 0
-351 -361 0
-352 -362 0
-353 -363 0
-354 -364 0
-355 -365 0
-351 -356 0
-352 -357 0
-353 -358 0
-354 -359 0
-355 -360 0
-346 -366 0
-347 -367 0
-348 -368 0
-349 -369 0
-350 -370 0
-346 -361 0
-347 -362 0
-348 -363 0
-349 -364 0
-350 -365 0
-346 -356 0
-347 -357 0
-348 -358 0
-349 -359 0
-350 -360 0
-341 -361 0
-342 -362 0
-343 -363 0
-344 -364 0
-345 -365 0
-341 -356 0
-342 -357 0
-343 -358 0
-344 -359 0
-345 -360 0
-341 -351 0
-342 -352 0
-343 -353 0
-344 -354 0
-345 -355 0
-341 -346 0
-342 -347 0
-343 -348 0
-344 -349 0
-345 -350 0
-336 -356 0
-337 -357 0
-338 -358 0
-339 -359 0
-340 -360 0
-336 -351 0
-337 -352 0
-338 -353 0
-339 -354 0
-340 -355 0
-336 -341 0
-337 -342 0
-338 -343 0
-339 -344 0
-340 -345 0
-331 -351 0
-332 -352 0
-333 -353 0
-334 -354 0
-335 -355 0
-331 -346 0
-332 -347 0
-333 -348 0
-334 -349 0
-335 -350 0
-331 -341 0
-332 -342 0
-333 -343 0
-334 -344 0
-335 -345 0
-331 -336 0
-332 -337 0
-333 -338 0
-334 -339 0
-335 -340 0
-326 -346 0
-327 -347 0
-328 -348 0
-329 -349 0
-330 -350 0
-326 -341 0
-327 -342 0
-328 -343 0
-329 -344 0
-330 -345 0
-326 -336 0
-327 -337 0
-328 -338 0
-329 -339 0
-330 -340 0
-326 -331 0
-327 -332 0
-328 -333 0
-329 -334 0
-330 -335 0
-321 -336 0
-322 -337 0
-323 -338 0
-324 -339 0
-325 -340 0
-321 -326 0
-322 -327 0
-323 -328 0
-324 -329 0
-325 -330 0
-316 -336 0
-317 -337 0
-318 -338 0
-319 -339 0
-320 -340 0
-316 -331 0
-317 -332 0
-318 -333 0
-319 -334 0
-320 -335 0
-316 -326 0
-317 -327 0
-318 -328 0
-319 -329 0
-320 -330 0
-316 -321 0
-317 -322 0
-318 -323 0
-319 -324 0
-320 -325 0
-311 -331 0
-312 -332 0
-313 -333 0
-314 -334 0
-315 -335 0
-311 -326 0
-312 -327 0
-313 -328 0
-314 -329 0
-315 -330 0
-311 -321 0
-312 -322 0
-313 -323 0
-314 -324 0
-315 -325 0
-311 -316 0
-312 -317 0
-313 -318 0
-314 -319 0
-315 -320 0
-306 -326 0
-307 -327 0
-308 -328 0
-309 -329 0
-310 -330 0
-301 -311 0
-302 -312 0
-303 -313 0
-304 -314 0
-305 -315 0
-301 -306 0
-302 -307 0
-303 -308 0
-304 -309 0
-305 -310 0
-296 -316 0
-297 -317 0
-298 -318 0
-299 -319 0
-300 -320 0
-296 -306 0
-297 -307 0
-298 -308 0
-299 -309 0
-300 -310 0
-296 -301 0
-297 -302 0
-298 -303 0
-299 -304 0
-300 -305 0
-291 -306 0
-292 -307 0
-293 -308 0
-294 -309 0
-295 -310 0
-291 -301 0
-292 -302 0
-293 -303 0
-294 -304 0
-295 -305 0
-291 -296 0
-292 -297 0
-293 -298 0
-294 -299 0
-295 -300 0
-286 -306 0
-287 -307 0
-288 -308 0
-289 -309 0
-290 -310 0
-286 -301 0
-287 -302 0
-288 -303 0
-289 -304 0
-290 -305 0
-286 -296 0
-287 -297 0
-288 -298 0
-289 -299 0
-290 -300 0
-286 -291 0
-287 -292 0
-288 -293 0
-289 -294 0
-290 -295 0
-281 -301 0
-282 -302 0
-283 -303 0
-284 -304 0
-285 -305 0
-281 -296 0
-282 -297 0
-283 -298 0
-284 -299 0
-285 -300 0
-281 -286 0
-282 -287 0
-283 -288 0
-284 -289 0
-285 -290 0
-276 -296 0
-277 -297 0
-278 -298 0
-279 -299 0
-280 -300 0
-276 -291 0
-277 -292 0
-278 -293 0
-279 -294 0
-280 -295 0
-276 -286 0
-277 -287 0
-278 -288 0
-279 -289 0
-280 -290 0
-276 -281 0
-277 -282 0
-278 -283 0
-279 -284 0
-280 -285 0
-271 -286 0
-272 -287 0
-273 -288 0
-274 -289 0
-275 -290 0
-271 -276 0
-272 -277 0
-273 -278 0
-274 -279 0
-275 -280 0
-266 -286 0
-267 -287 0
-268 -288 0
-269 -289 0
-270 -290 0
-266 -276 0
-267 -277 0
-268 -278 0
-269 -279 0
-270 -280 0
-266 -271 0
-267 -272 0
-268 -273 0
-269 -274 0
-270 -275 0
-261 -276 0
-262 -277 0
-263 -278 0
-264 -279 0
-265 -280 0
-261 -271 0
-262 -272 0
-263 -273 0
-264 -274 0
-265 -275 0
-261 -266 0
-262 -267 0
-263 -268 0
-264 -269 0
-265 -270 0
-256 -276 0
-257 -277 0
-258 -278 0
-259 -279 0
-260 -280 0
-256 -271 0
-257 -272 0
-258 -273 0
-259 -274 0
-260 -275 0
-251 -266 0
-252 -267 0
-253 -268 0
-254 -269 0
-255 -270 0
-251 -261 0
-252 -262 0
-253 -263 0
-254 -264 0
-255 -265 0
-251 -256 0
-252 -257 0
-253 -258 0
-254 -259 0
-255 -260 0
-246 -266 0
-247 -267 0
-248 -268 0
-249 -269 0
-250 -270 0
-246 -256 0
-247 -257 0
-248 -258 0
-249 -259 0
-250 -260 0
-246 -251 0
-247 -252 0
-248 -253 0
-249 -254 0
-250 -255 0
-241 -261 0
-242 -262 0
-243 -263 0
-244 -264 0
-245 -265 0
-241 -256 0
-242 -257 0
-243 -258 0
-244 -259 0
-245 -260 0
-241 -246 0
-242 -247 0
-243 -248 0
-244 -249 0
-245 -250 0
-236 -251 0
-237 -252 0
-238 -253 0
-239 -254 0
-240 -255 0
-236 -246 0
-237 -247 0
-238 -248 0
-239 -249 0
-240 -250 0
-236 -241 0
-237 -242 0
-238 -243 0
-239 -244 0
-240 -245 0
-231 -251 0
-232 -252 0
-233 -253 0
-234 -254 0
-235 -255 0
-231 -246 0
-232 -247 0
-233 -248 0
-234 -249 0
-235 -250 0
-231 -241 0
-232 -242 0
-233 -243 0
-234 -244 0
-235 -245 0
-231 -236 0
-232 -237 0
-233 -238 0
-234 -239 0
-235 -240 0
-226 -246 0
-227 -247 0
-228 -248 0
-229 -249 0
-230 -250 0
-226 -241 0
-227 -242 0
-228 -243 0
-229 -244 0
-230 -245 0
-226 -231 0
-227 -232 0
-228 -233 0
-229 -234 0
-230 -235 0
-221 -241 0
-222 -242 0
-223 -243 0
-224 -244 0
-225 -245 0
-221 -236 0
-222 -237 0
-223 -238 0
-224 -239 0
-225 -240 0
-216 -236 0
-217 -237 0
-218 -238 0
-219 -239 0
-220 -240 0
-216 -231 0
-217 -232 0
-218 -233 0
-219 -234 0
-220 -235 0
-216 -226 0
-217 -227 0
-218 -228 0
-219 -229 0
-220 -230 0
-211 -231 0
-212 -232 0
-213 -233 0
-214 -234 0
-215 -235 0
-211 -226 0
-212 -227 0
-213 -228 0
-214 -229 0
-215 -230 0
-211 -216 0
-212 -217 0
-213 -218 0
-214 -219 0
-215 -220 0
-206 -226 0
-207 -227 0
-208 -228 0
-209 -229 0
-210 -230 0
-201 -221 0
-202 -222 0
-203 -223 0
-204 -224 0
-205 -225 0
-201 -216 0
-202 -217 0
-203 -218 0
-204 -219 0
-205 -220 0
-201 -206 0
-202 -207 0
-203 -208 0
-204 -209 0
-205 -210 0
-196 -216 0
-197 -217 0
-198 -218 0
-199 -219 0
-200 -220 0
-196 -211 0
-197 -212 0
-198 -213 0
-199 -214 0
-200 -215 0
-191 -206 0
-192 -207 0
-193 -208 0
-194 -209 0
-195 -210 0
-191 -201 0
-192 -202 0
-193 -203 0
-194 -204 0
-195 -205 0
-186 -191 0
-187 -192 0
-188 -193 0
-189 -194 0
-190 -195 0
-181 -201 0
-182 -202 0
-183 -203 0
-184 -204 0
-185 -205 0
-181 -196 0
-182 -197 0
-183 -198 0
-184 -199 0
-185 -200 0
-181 -191 0
-182 -192 0
-183 -193 0
-184 -194 0
-185 -195 0
-181 -186 0
-182 -187 0
-183 -188 0
-184 -189 0
-185 -190 0
-176 -191 0
-177 -192 0
-178 -193 0
-179 -194 0
-180 -195 0
-176 -181 0
-177 -182 0
-178 -183 0
-179 -184 0
-180 -185 0
-171 -191 0
-172 -192 0
-173 -193 0
-174 -194 0
-175 -195 0
-171 -186 0
-172 -187 0
-173 -188 0
-174 -189 0
-175 -190 0
-166 -181 0
-167 -182 0
-168 -183 0
-169 -184 0
-170 -185 0
-166 -171 0
-167 -172 0
-168 -173 0
-169 -174 0
-170 -175 0
-161 -181 0
-162 -182 0
-163 -183 0
-164 -184 0
-165 -185 0
-161 -171 0
-162 -172 0
-163 -173 0
-164 -174 0
-165 -175 0
-161 -166 0
-162 -167 0
-163 -168 0
-164 -169 0
-165 -170 0
-156 -176 0
-157 -177 0
-158 -178 0
-159 -179 0
-160 -180 0
-156 -171 0
-157 -172 0
-158 -173 0
-159 -174 0
-160 -175 0
-156 -166 0
-157 -167 0
-158 -168 0
-159 -169 0
-160 -170 0
-156 -161 0
-157 -162 0
-158 -163 0
-159 -164 0
-160 -165 0
-151 -166 0
-152 -167 0
-153 -168 0
-154 -169 0
-155 -170 0
-151 -156 0
-152 -157 0
-153 -158 0
-154 -159 0
-155 -160 0
-146 -161 0
-147 -162 0
-148 -163 0
-149 -164 0
-150 -165 0
-146 -156 0
-147 -157 0
-148 -158 0
-149 -159 0
-150 -160 0
-141 -161 0
-142 -162 0
-143 -163 0
-144 -164 0
-145 -165 0
-141 -156 0
-142 -157 0
-143 -158 0
-144 -159 0
-145 -160 0
-141 -151 0
-142 -152 0
-143 -153 0
-144 -154 0
-145 -155 0
-141 -146 0
-142 -147 0
-143 -148 0
-144 -149 0
-145 -150 0
-136 -156 0
-137 -157 0
-138 -158 0
-139 -159 0
-140 -160 0
-136 -146 0
-137 -147 0
-138 -148 0
-139 -149 0
-140 -150 0
-136 -141 0
-137 -142 0
-138 -143 0
-139 -144 0
-140 -145 0
-131 -151 0
-132 -152 0
-133 -153 0
-134 -154 0
-135 -155 0
-126 -136 0
-127 -137 0
-128 -138 0
-129 -139 0
-130 -140 0
-121 -131 0
-122 -132 0
-123 -133 0
-124 -134 0
-125 -135 0
-121 -126 0
-122 -127 0
-123 -128 0
-124 -129 0
-125 -130 0
-116 -136 0
-117 -137 0
-118 -138 0
-119 -139 0
-120 -140 0
-116 -126 0
-117 -127 0
-118 -128 0
-119 -129 0
-120 -130 0
-111 -131 0
-112 -132 0
-113 -133 0
-114 -134 0
-115 -135 0
-111 -126 0
-112 -127 0
-113 -128 0
-114 -129 0
-115 -130 0
-111 -116 0
-112 -117 0
-113 -118 0
-114 -119 0
-115 -120 0
-106 -126 0
-107 -127 0
-108 -128 0
-109 -129 0
-110 -130 0
-106 -121 0
-107 -122 0
-108 -123 0
-109 -124 0
-110 -125 0
-106 -116 0
-107 -117 0
-108 -118 0
-109 -119 0
-110 -120 0
-101 -121 0
-102 -122 0
-103 -123 0
-104 -124 0
-105 -125 0
-101 -116 0
-102 -117 0
-103 -118 0
-104 -119 0
-105 -120 0
-101 -111 0
-102 -112 0
-103 -113 0
-104 -114 0
-105 -115 0
-96 -106 0
-97 -107 0
-98 -108 0
-99 -109 0
-100 -110 0
-91 -106 0
-92 -107 0
-93 -108 0
-94 -109 0
-95 -110 0
-91 -96 0
-92 -97 0
-93 -98 0
-94 -99 0
-95 -100 0
-86 -106 0
-87 -107 0
-88 -108 0
-89 -109 0
-90 -110 0
-86 -101 0
-87 -102 0
-88 -103 0
-89 -104 0
-90 -105 0
-86 -96 0
-87 -97 0
-88 -98 0
-89 -99 0
-90 -100 0
-86 -91 0
-87 -92 0
-88 -93 0
-89 -94 0
-90 -95 0
-81 -86 0
-82 -87 0
-83 -88 0
-84 -89 0
-85 -90 0
-76 -96 0
-77 -97 0
-78 -98 0
-79 -99 0
-80 -100 0
-76 -91 0
-77 -92 0
-78 -93 0
-79 -94 0
-80 -95 0
-76 -86 0
-77 -87 0
-78 -88 0
-79 -89 0
-80 -90 0
-71 -86 0
-72 -87 0
-73 -88 0
-74 -89 0
-75 -90 0
-66 -86 0
-67 -87 0
-68 -88 0
-69 -89 0
-70 -90 0
-61 -81 0
-62 -82 0
-63 -83 0
-64 -84 0
-65 -85 0
-61 -76 0
-62 -77 0
-63 -78 0
-64 -79 0
-65 -80 0
-61 -66 0
-62 -67 0
-63 -68 0
-64 -69 0
-65 -70 0
-56 -76 0
-57 -77 0
-58 -78 0
-59 -79 0
-60 -80 0
-56 -71 0
-57 -72 0
-58 -73 0
-59 -74 0
-60 -75 0
-56 -66 0
-57 -67 0
-58 -68 0
-59 -69 0
-60 -70 0
-51 -71 0
-52 -72 0
-53 -73 0
-54 -74 0
-55 -75 0
-51 -61 0
-52 -62 0
-53 -63 0
-54 -64 0
-55 -65 0
-51 -56 0
-52 -57 0
-53 -58 0
-54 -59 0
-55 -60 0
-46 -56 0
-47 -57 0
-48 -58 0
-49 -59 0
-50 -60 0
-46 -51 0
-47 -52 0
-48 -53 0
-49 -54 0
-50 -55 0
-41 -51 0
-42 -52 0
-43 -53 0
-44 -54 0
-45 -55 0
-41 -46 0
-42 -47 0
-43 -48 0
-44 -49 0
-45 -50 0
-36 -51 0
-37 -52 0
-38 -53 0
-39 -54 0
-40 -55 0
-36 -46 0
-37 -47 0
-38 -48 0
-39 -49 0
-40 -50 0
-36 -41 0
-37 -42 0
-38 -43 0
-39 -44 0
-40 -45 0
-31 -51 0
-32 -52 0
-33 -53 0
-34 -54 0
-35 -55 0
-31 -46 0
-32 -47 0
-33 -48 0
-34 -49 0
-35 -50 0
-31 -36 0
-32 -37 0
-33 -38 0
-34 -39 0
-35 -40 0
-26 -46 0
-27 -47 0
-28 -48 0
-29 -49 0
-30 -50 0
-26 -41 0
-27 -42 0
-28 -43 0
-29 -44 0
-30 -45 0
-26 -31 0
-27 -32 0
-28 -33 0
-29 -34 0
-30 -35 0
-21 -36 0
-22 -37 0
-23 -38 0
-24 -39 0
-25 -40 0
-21 -31 0
-22 -32 0
-23 -33 0
-24 -34 0
-25 -35 0
-21 -26 0
-22 -27 0
-23 -28 0
-24 -29 0
-25 -30 0
-16 -36 0
-17 -37 0
-18 -38 0
-19 -39 0
-20 -40 0
-16 -26 0
-17 -27 0
-18 -28 0
-19 -29 0
-20 -30 0
-16 -21 0
-17 -22 0
-18 -23 0
-19 -24 0
-20 -25 0
-11 -26 0
-12 -27 0
-13 -28 0
-14 -29 0
-15 -30 0
-11 -21 0
-12 -22 0
-13 -23 0
-14 -24 0
-15 -25 0
-11 -16 0
-12 -17 0
-13 -18 0
-14 -19 0
-15 -20 0
-6 -21 0
-7 -22 0
-8 -23 0
-9 -24 0
-10 -25 0
-6 -11 0
-7 -12 0
-8 -13 0
-9 -14 0
-10 -15 0
-1 -16 0
-2 -17 0
-3 -18 0
-4 -19 0
-5 -20 0
-1 -11 0
-2 -12 0
-3 -13 0
-4 -14 0
-5 -15 0
-1 -6 0
-2 -7 0
-3 -8 0
-4 -9 0
-5 -10 0
-356 -441 0
-357 -442 0
-358 -443 0
-359 -444 0
-360 -445 0
-71 -321 0
-72 -322 0
-73 -323 0
-74 -324 0
-75 -325 0
-66 -371 0
-67 -372 0
-68 -373 0
-69 -374 0
-70 -375 0
-1 -431 0
-2 -432 0
-3 -433 0
-4 -434 0
-5 -435 0
-121 -341 0
-122 -342 0
-123 -343 0
-124 -344 0
-125 -345 0
-231 -381 0
-232 -382 0
-233 -383 0
-234 -384 0
-235 -385 0
-76 -196 0
-77 -197 0
-78 -198 0
-79 -199 0
-80 -200 0
-146 -236 0
-147 -237 0
-148 -238 0
-149 -239 0
-150 -240 0
-196 -496 0
-197 -497 0
-198 -498 0
-199 -499 0
-200 -500 0
-186 -281 0
-187 -282 0
-188 -283 0
-189 -284 0
-190 -285 0
-6 -31 0
-7 -32 0
-8 -33 0
-9 -34 0
-10 -35 0
-156 -471 0
-157 -472 0
-158 -473 0
-159 -474 0
-160 -475 0
-91 -211 0
-92 -212 0
-93 -213 0
-94 -214 0
-95 -215 0
-186 -491 0
-187 -492 0
-188 -493 0
-189 -494 0
-190 -495 0
-206 -496 0
-207 -497 0
-208 -498 0
-209 -499 0
-210 -500 0
-166 -481 0
-167 -482 0
-168 -483 0
-169 -484 0
-170 -485 0
-201 -266 0
-202 -267 0
-203 -268 0
-204 -269 0
-205 -270 0
-16 -146 0
-17 -147 0
-18 -148 0
-19 -149 0
-20 -150 0
-36 -316 0
-37 -317 0
-38 -318 0
-39 -319 0
-40 -320 0
-366 -486 0
-367 -487 0
-368 -488 0
-369 -489 0
-370 -490 0
-146 -331 0
-147 -332 0
-148 -333 0
-149 -334 0
-150 -335 0
-151 -316 0
-152 -317 0
-153 -318 0
-154 -319 0
-155 -320 0
-71 -126 0
-72 -127 0
-73 -128 0
-74 -129 0
-75 -130 0
-171 -416 0
-172 -417 0
-173 -418 0
-174 -419 0
-175 -420 0
-6 -206 0
-7 -207 0
-8 -208 0
-9 -209 0
-10 -210 0
-106 -236 0
-107 -237 0
-108 -238 0
-109 -239 0
-110 -240 0
-171 -426 0
-172 -427 0
-173 -428 0
-174 -429 0
-175 -430 0
-436 -481 0
-437 -482 0
-438 -483 0
-439 -484 0
-440 -485 0
-306 -426 0
-307 -427 0
-308 -428 0
-309 -429 0
-310 -430 0
-206 -476 0
-207 -477 0
-208 -478 0
-209 -479 0
-210 -480 0
-26 -106 0
-27 -107 0
-28 -108 0
-29 -109 0
-30 -110 0
-31 -86 0
-32 -87 0
-33 -88 0
-34 -89 0
-35 -90 0
-201 -361 0
-202 -362 0
-203 -363 0
-204 -364 0
-205 -365 0
-341 -416 0
-342 -417 0
-343 -418 0
-344 -419 0
-345 -420 0
-111 -361 0
-112 -362 0
-113 -363 0
-114 -364 0
-115 -365 0
-281 -371 0
-282 -372 0
-283 -373 0
-284 -374 0
-285 -375 0
-156 -356 0
-157 -357 0
-158 -358 0
-159 -359 0
-160 -360 0
-41 -446 0
-42 -447 0
-43 -448 0
-44 -449 0
-45 -450 0
-86 -456 0
-87 -457 0
-88 -458 0
-89 -459 0
-90 -460 0
-251 -341 0
-252 -342 0
-253 -343 0
-254 -344 0
-255 -345 0
-426 -476 0
-427 -477 0
-428 -478 0
-429 -479 0
-430 -480 0
-141 -191 0
-142 -192 0
-143 -193 0
-144 -194 0
-145 -195 0
-256 -301 0
-257 -302 0
-258 -303 0
-259 -304 0
-260 -305 0
-46 -461 0
-47 -462 0
-48 -463 0
-49 -464 0
-50 -465 0
-91 -426 0
-92 -427 0
-93 -428 0
-94 -429 0
-95 -430 0
-166 -386 0
-167 -387 0
-168 -388 0
-169 -389 0
-170 -390 0
-6 -361 0
-7 -362 0
-8 -363 0
-9 -364 0
-10 -365 0
-41 -441 0
-42 -442 0
-43 -443 0
-44 -444 0
-45 -445 0
-46 -361 0
-47 -362 0
-48 -363 0
-49 -364 0
-50 -365 0
-156 -196 0
-157 -197 0
-158 -198 0
-159 -199 0
-160 -200 0
-266 -311 0
-267 -312 0
-268 -313 0
-269 -314 0
-270 -315 0
-226 -491 0
-227 -492 0
-228 -493 0
-229 -494 0
-230 -495 0
-106 -361 0
-107 -362 0
-108 -363 0
-109 -364 0
-110 -365 0
-91 -221 0
-92 -222 0
-93 -223 0
-94 -224 0
-95 -225 0
-346 -451 0
-347 -452 0
-348 -453 0
-349 -454 0
-350 -455 0
-56 -486 0
-57 -487 0
-58 -488 0
-59 -489 0
-60 -490 0
-126 -156 0
-127 -157 0
-128 -158 0
-129 -159 0
-130 -160 0
-181 -426 0
-182 -427 0
-183 -428 0
-184 -429 0
-185 -430 0
-81 -116 0
-82 -117 0
-83 -118 0
-84 -119 0
-85 -120 0
-41 -91 0
-42 -92 0
-43 -93 0
-44 -94 0
-45 -95 0
-251 -296 0
-252 -297 0
-253 -298 0
-254 -299 0
-255 -300 0
-166 -226 0
-167 -227 0
-168 -228 0
-169 -229 0
-170 -230 0
-86 -166 0
-87 -167 0
-88 -168 0
-89 -169 0
-90 -170 0
-151 -291 0
-152 -292 0
-153 -293 0
-154 -294 0
-155 -295 0
-236 -276 0
-237 -277 0
-238 -278 0
-239 -279 0
-240 -280 0
-76 -466 0
-77 -467 0
-78 -468 0
-79 -469 0
-80 -470 0
-151 -426 0
-152 -427 0
-153 -428 0
-154 -429 0
-155 -430 0
-141 -441 0
-142 -442 0
-143 -443 0
-144 -444 0
-145 -445 0
-226 -351 0
-227 -352 0
-228 -353 0
-229 -354 0
-230 -355 0
-266 -481 0
-267 -482 0
-268 -483 0
-269 -484 0
-270 -485 0
-236 -301 0
-237 -302 0
-238 -303 0
-239 -304 0
-240 -305 0
-446 -491 0
-447 -492 0
-448 -493 0
-449 -494 0
-450 -495 0
-116 -256 0
-117 -257 0
-118 -258 0
-119 -259 0
-120 -260 0
-371 -396 0
-372 -397 0
-373 -398 0
-374 -399 0
-375 -400 0
-36 -301 0
-37 -302 0
-38 -303 0
-39 -304 0
-40 -305 0
-111 -156 0
-112 -157 0
-113 -158 0
-114 -159 0
-115 -160 0
-226 -316 0
-227 -317 0
-228 -318 0
-229 -319 0
-230 -320 0
-236 -261 0
-237 -262 0
-238 -263 0
-239 -264 0
-240 -265 0
-321 -381 0
-322 -382 0
-323 -383 0
-324 -384 0
-325 -385 0
-21 -96 0
-22 -97 0
-23 -98 0
-24 -99 0
-25 -100 0
-36 -151 0
-37 -152 0
-38 -153 0
-39 -154 0
-40 -155 0
-21 -491 0
-22 -492 0
-23 -493 0
-24 -494 0
-25 -495 0
-81 -291 0
-82 -292 0
-83 -293 0
-84 -294 0
-85 -295 0
-296 -391 0
-297 -392 0
-298 -393 0
-299 -394 0
-300 -395 0
-331 -386 0
-332 -387 0
-333 -388 0
-334 -389 0
-335 -390 0
-126 -236 0
-127 -237 0
-128 -238 0
-129 -239 0
-130 -240 0
-281 -396 0
-282 -397 0
-283 -398 0
-284 -399 0
-285 -400 0
-11 -61 0
-12 -62 0
-13 -63 0
-14 -64 0
-15 -65 0
-141 -266 0
-142 -267 0
-143 -268 0
-144 -269 0
-145 -270 0
-206 -406 0
-207 -407 0
-208 -408 0
-209 -409 0
-210 -410 0
-291 -476 0
-292 -477 0
-293 -478 0
-294 -479 0
-295 -480 0
-86 -261 0
-87 -262 0
-88 -263 0
-89 -264 0
-90 -265 0
